peakDumbCharging = 22200; 
Machine = anon_enum(16); 
machineSpeed = [3700,3700,3700,3700,3700,3700,3700,3700,3700,3700,3700,3700,3700,3700,3700,3700]; 
machineLoad = [3700,3700,3700,3700,3700,3700,3700,3700,3700,3700,3700,3700,3700,3700,3700,3700]; 
Car = anon_enum(32); 
demandCar = [4400,5280,4080,1400,26400,8720,3720,4200,3680,760,1880,11280,7000,9960,2160,18080,5040,6160,3000,26920,14760,4440,4720,8160,2560,18040,40,14320,10520,7280,14640,35280]; 
arrivalCar = [77,68,65,64,64,63,63,63,60,60,59,59,58,56,56,56,50,50,45,43,41,40,40,40,38,35,35,35,34,29,22,19]; 
departureCar = [79,71,68,66,73,66,65,65,64,62,61,63,61,61,58,64,58,55,48,56,49,44,44,43,40,49,36,47,38,33,57,39]; 
